NAME : Tiny-HVRP
TYPE : HVRP
DIMENSION : 6
EDGE_WEIGHT_TYPE : EUC_2D

NODE_COORD_SECTION
1 0 0
2 10 0
3 20 10
4 10 10
5 0 10

DEMAND_SECTION
1 0
2 5
3 6
4 7
5 8

VEHICLE_TYPES
# id capacity fixed_cost var_cost
A 5  100 0 
B 6  120 0
C 7  130 0 
D 8  140 0 
END_VEHICLE_TYPES

DEPOT_SECTION
1
-1
EOF
